
Gurobi 10.0.1 (linux64) logging started Sun Nov 26 15:56:29 2023

Set parameter LogFile to value "ArtificialInstance/ExperimentV2/S3T3K2/AdRo/gurobi91.txt"
Gurobi Optimizer version 10.0.1 build v10.0.1rc0 (linux64)

CPU model: AMD EPYC 7H12 64-Core Processor, instruction set [SSE2|AVX|AVX2]
Thread count: 128 physical cores, 128 logical processors, using up to 32 threads

Academic license 656792 - for non-commercial use only - registered to b.___@student.vu.nl
Optimize a model with 6787 rows, 6733 columns and 25905 nonzeros
Model fingerprint: 0xe968bff9
Variable types: 1 continuous, 6732 integer (6732 binary)
Coefficient statistics:
  Matrix range     [1e+00, 4e+01]
  Objective range  [1e+00, 2e+01]
  Bounds range     [1e+00, 1e+00]
  RHS range        [1e+00, 1e+00]
Presolve removed 960 rows and 1001 columns
Presolve time: 0.10s
Presolved: 5827 rows, 5732 columns, 22664 nonzeros
Variable types: 1 continuous, 5731 integer (5731 binary)

Root relaxation: objective 5.033372e+01, 3342 iterations, 0.16 seconds (0.13 work units)

    Nodes    |    Current Node    |     Objective Bounds      |     Work
 Expl Unexpl |  Obj  Depth IntInf | Incumbent    BestBd   Gap | It/Node Time

     0     0   50.33372    0  111          -   50.33372      -     -    0s
H    0     0                      75.2633869   50.33372  33.1%     -    0s
H    0     0                      72.5392086   50.33372  30.6%     -    0s
H    0     0                      52.7583977   50.33372  4.60%     -    0s
     0     0   52.36280    0  185   52.75840   52.36280  0.75%     -    0s
     0     0   52.36280    0   50   52.75840   52.36280  0.75%     -    0s

Explored 1 nodes (5728 simplex iterations) in 0.63 seconds (0.37 work units)
Thread count was 32 (of 128 available processors)

Solution count 3: 52.7584 72.5392 75.2634 

Optimal solution found (tolerance 1.00e-04)
Best objective 5.275839773757e+01, best bound 5.275839773757e+01, gap 0.0000%
